(set-logic ALL)
(declare-rel simple!!query ())
(declare-rel inv (Int Int Int Int Int))
(declare-var A Int)
(declare-var B Int)
(declare-var C Int)
(declare-var D Int)
(declare-var E Int)
(declare-var F Int)
(declare-var G Int)
(declare-var H Int)
(declare-var I Int)
(rule (=> (and (= D C) (= B 0) (or (= A 0) (= A 1)) (= E 100)) (inv E D C B A)))
(rule (let ((a!1 (and (inv E I H F G)
                (= B (+ 1 F))
                (= A (ite (= G 0) 1 0))
                (= C (ite (= G 0) H (+ 1 H)))
                (not (<= (* 2 E) F))
                (= D (ite (= G 0) (+ 1 I) I)))))
  (=> a!1 (inv E D C B A))))
(rule (=> (and (inv C D E B A) (not (= D E)) (= B (* 2 C))) simple!!query))
(query simple!!query)
